SAT
33 64 -69 -75 -94 58 9 25 31 1 -93 -20 -42 18 -10 79 63 92 -48 -81 72 34 -61 38 -89 57 67 -30 11 -32 13 100 -50 -39 17 60 97 -49 23 90 26 99 -21 66 -56 86 -68 -65 4 19 53 84 -51 -41 70 -5 7 -15 -45 -71 43 -96 -83 6 -55 46 -22 -47 44 28 -76 27 -80 -2 59 -73 14 40 -77 -74 3 -87 -29 37 16 36 85 54 8 12 98 82 88 91 35 62 95 -24 52 -78 0
